NAME : graph11
COMMENT : H Algorithm Solution by Oscar Riveros [http://twitter.com/maxtuno]
TYPE : TOUR
DIMENSION : 126
TOUR_SECTION
54
21
103
14
12
23
73
69
42
123
10
36
32
100
19
8
24
37
86
85
120
29
112
111
118
61
84
2
38
16
22
45
126
30
93
115
119
79
40
5
50
47
78
81
49
70
75
125
65
20
67
51
109
46
43
13
74
33
39
60
105
57
117
58
34
53
94
110
88
3
28
83
15
26
4
82
108
44
48
122
11
96
92
52
77
1
18
17
9
107
124
71
102
114
7
89
91
99
76
98
35
87
62
66
68
113
72
6
27
55
59
56
104
31
64
97
90
80
63
95
25
41
121
116
106
101
-1
EOF
